4 3 100 1 2
0 1000
 1 40.00 50.00 0.00 0.00 0.00 0 0 0 960
 2 25.00 85.00 10.00 20.00 40.00 1 1 1 388 911
 3 22.00 75.00 10.00 30.00 19.00 1 1 1 30 546
 4 22.00 85.00 10.00 10.00 9.00 1 1 1 353 708
 5 20.00 80.00 10.00 40.00 10.00 1 1 1 425 913
 6 20.00 85.00 10.00 20.00 20.00 1 1 1 40 630
 7 18.00 75.00 10.00 20.00 23.00 1 1 1 228 667
 8 15.00 75.00 10.00 20.00 9.00 1 1 1 161 558
 9 15.00 80.00 10.00 10.00 21.00 1 1 1 229 624
 10 10.00 35.00 10.00 20.00 6.00 1 1 1 213 648
 11 10.00 40.00 10.00 30.00 10.00 1 1 1 404 753
 12 8.00 40.00 10.00 40.00 13.00 1 1 1 33 511
 13 8.00 45.00 10.00 20.00 6.00 1 1 1 46 519
 14 5.00 35.00 10.00 10.00 16.00 1 1 1 395 911
 15 5.00 45.00 10.00 10.00 30.00 1 1 1 35 697
 16 2.00 40.00 10.00 20.00 20.00 1 1 1 39 528
 17 0.00 40.00 10.00 20.00 10.00 1 1 1 94 535
 18 0.00 45.00 10.00 20.00 14.00 1 1 1 394 909
 19 44.00 5.00 10.00 20.00 17.00 1 1 1 218 571
 20 42.00 10.00 10.00 40.00 10.00 1 1 1 85 542
 21 42.00 15.00 10.00 10.00 10.00 1 1 1 391 802
 22 40.00 5.00 10.00 10.00 20.00 1 1 1 45 517
 23 40.00 15.00 10.00 40.00 19.00 1 1 1 229 640
 24 38.00 5.00 10.00 30.00 30.00 1 1 1 45 523
 25 38.00 15.00 10.00 10.00 20.00 1 1 1 389 914
 26 35.00 5.00 10.00 20.00 40.00 1 1 1 386 904
 27 95.00 30.00 10.00 30.00 27.00 1 1 1 389 788
 28 95.00 35.00 10.00 20.00 5.00 1 1 1 57 600
 29 92.00 30.00 10.00 10.00 20.00 1 1 1 55 575
 30 90.00 35.00 10.00 10.00 40.00 1 1 1 52 536
 31 88.00 30.00 10.00 10.00 20.00 1 1 1 90 521
 32 88.00 35.00 10.00 20.00 10.00 1 1 1 50 534
 33 87.00 30.00 10.00 10.00 10.00 1 1 1 425 898
 34 85.00 25.00 10.00 10.00 7.00 1 1 1 51 602
 35 85.00 35.00 10.00 30.00 16.00 1 1 1 342 751
 36 67.00 85.00 10.00 20.00 14.00 1 1 1 410 905
 37 65.00 85.00 10.00 40.00 26.00 1 1 1 43 617
 38 65.00 82.00 10.00 10.00 28.00 1 1 1 410 823
 39 62.00 80.00 10.00 30.00 5.00 1 1 1 114 561
 40 60.00 80.00 10.00 10.00 23.00 1 1 1 36 658
 41 60.00 85.00 10.00 30.00 20.00 1 1 1 191 586
 42 58.00 75.00 10.00 20.00 40.00 1 1 1 201 670
 43 55.00 80.00 10.00 10.00 10.00 1 1 1 33 568
 44 55.00 85.00 10.00 20.00 3.00 1 1 1 429 838
 45 55.00 82.00 10.00 10.00 35.00 1 1 1 49 504
 46 20.00 82.00 10.00 10.00 2.00 1 1 1 37 597
 47 18.00 80.00 10.00 10.00 19.00 1 1 1 315 782
 48 2.00 45.00 10.00 10.00 16.00 1 1 1 38 606
 49 42.00 5.00 10.00 10.00 10.00 1 1 1 396 904
 50 42.00 12.00 10.00 10.00 10.00 1 1 1 341 658
 51 72.00 35.00 10.00 30.00 13.00 1 1 1 351 782
 52 55.00 20.00 10.00 19.00 20.00 1 1 1 161 610
 53 25.00 30.00 10.00 3.00 25.00 1 1 1 25 516
 54 20.00 50.00 10.00 5.00 3.00 1 1 1 239 630
 55 55.00 60.00 10.00 16.00 30.00 1 1 1 448 873
 56 30.00 60.00 10.00 16.00 10.00 1 1 1 420 897
 57 50.00 35.00 10.00 19.00 20.00 1 1 1 390 843
 58 30.00 25.00 10.00 23.00 10.00 1 1 1 227 686
 59 15.00 10.00 10.00 20.00 10.00 1 1 1 401 902
 60 10.00 20.00 10.00 19.00 20.00 1 1 1 42 706
 61 15.00 60.00 10.00 17.00 20.00 1 1 1 401 923
 62 45.00 65.00 10.00 9.00 20.00 1 1 1 110 525
 63 65.00 35.00 10.00 3.00 30.00 1 1 1 29 548
 64 65.00 20.00 10.00 6.00 10.00 1 1 1 39 593
 65 45.00 30.00 10.00 17.00 31.00 1 1 1 20 498
 66 35.00 40.00 10.00 16.00 23.00 1 1 1 11 530
 67 41.00 37.00 10.00 16.00 20.00 1 1 1 404 847
 68 64.00 42.00 10.00 9.00 8.00 1 1 1 100 555
 69 40.00 60.00 10.00 21.00 30.00 1 1 1 436 907
 70 31.00 52.00 10.00 27.00 9.00 1 1 1 9 510
 71 35.00 69.00 10.00 23.00 10.00 1 1 1 330 930
 72 65.00 55.00 10.00 14.00 30.00 1 1 1 81 520
 73 63.00 65.00 10.00 8.00 19.00 1 1 1 27 622
 74 2.00 60.00 10.00 5.00 30.00 1 1 1 135 556
 75 20.00 20.00 10.00 8.00 10.00 1 1 1 430 913
 76 5.00 5.00 10.00 16.00 13.00 1 1 1 63 520
 77 60.00 12.00 10.00 31.00 10.00 1 1 1 125 530
 78 23.00 3.00 10.00 7.00 10.00 1 1 1 390 900
 79 8.00 56.00 10.00 27.00 27.00 1 1 1 190 659
 80 6.00 68.00 10.00 30.00 20.00 1 1 1 215 608
 81 47.00 47.00 10.00 13.00 16.00 1 1 1 444 942
 82 49.00 58.00 10.00 10.00 20.00 1 1 1 249 580
 83 27.00 43.00 10.00 9.00 10.00 1 1 1 14 506
 84 37.00 31.00 10.00 14.00 10.00 1 1 1 19 566
 85 57.00 29.00 10.00 18.00 30.00 1 1 1 259 650
 86 63.00 23.00 10.00 2.00 10.00 1 1 1 198 609
 87 21.00 24.00 10.00 28.00 14.00 1 1 1 212 605
 88 12.00 24.00 10.00 13.00 9.00 1 1 1 272 565
 89 24.00 58.00 10.00 19.00 15.00 1 1 1 90 549
 90 67.00 5.00 10.00 25.00 10.00 1 1 1 325 897
 91 37.00 47.00 10.00 6.00 18.00 1 1 1 204 633
 92 49.00 42.00 10.00 13.00 40.00 1 1 1 442 937
 93 53.00 43.00 10.00 14.00 6.00 1 1 1 14 581
 94 61.00 52.00 10.00 3.00 17.00 1 1 1 373 928
 95 57.00 48.00 10.00 23.00 20.00 1 1 1 265 638
 96 56.00 37.00 10.00 6.00 30.00 1 1 1 20 539
 97 55.00 54.00 10.00 26.00 3.00 1 1 1 418 825
 98 4.00 18.00 10.00 35.00 3.00 1 1 1 426 787
 99 26.00 52.00 10.00 9.00 16.00 1 1 1 14 499
 100 26.00 35.00 10.00 15.00 20.00 1 1 1 149 586
 101 31.00 67.00 10.00 3.00 8.00 1 1 1 356 930
